# Objective value = 7
x0,1_4 0
x0,1_9 1
x0,1_11 0
x0,1_15 0
x0,1_22 0
x0,1_26 0
x0,1_35 0
x0,1_48 0
x0,1_57 0
x0,1_58 0
x0,1_73 0
x0,1_77 0
x0,1_82 0
x0,1_86 0
x0,2_4 0
x0,2_9 0
x0,2_11 0
x0,2_15 0
x0,2_22 0
x0,2_26 0
x0,2_35 0
x0,2_48 0
x0,2_57 0
x0,2_58 0
x0,2_73 0
x0,2_77 0
x0,2_82 0
x0,2_86 0
x0,3_4 0
x0,3_9 0
x0,3_11 0
x0,3_15 0
x0,3_22 0
x0,3_26 0
x0,3_35 1
x0,3_48 0
x0,3_57 0
x0,3_58 0
x0,3_73 0
x0,3_77 0
x0,3_82 0
x0,3_86 0
x0,4_4 0
x0,4_9 0
x0,4_11 0
x0,4_15 0
x0,4_22 0
x0,4_26 0
x0,4_35 0
x0,4_48 0
x0,4_57 1
x0,4_58 0
x0,4_73 0
x0,4_77 0
x0,4_82 0
x0,4_86 0
x0,5_4 0
x0,5_9 0
x0,5_11 0
x0,5_15 0
x0,5_22 0
x0,5_26 0
x0,5_35 0
x0,5_48 0
x0,5_57 0
x0,5_58 0
x0,5_73 0
x0,5_77 0
x0,5_82 1
x0,5_86 0
x0,6_4 0
x0,6_9 0
x0,6_11 0
x0,6_15 0
x0,6_22 0
x0,6_26 0
x0,6_35 0
x0,6_48 0
x0,6_57 0
x0,6_58 0
x0,6_73 0
x0,6_77 0
x0,6_82 0
x0,6_86 1
x0,7_4 0
x0,7_9 0
x0,7_11 0
x0,7_15 0
x0,7_22 0
x0,7_26 0
x0,7_35 0
x0,7_48 0
x0,7_57 0
x0,7_58 0
x0,7_73 0
x0,7_77 0
x0,7_82 0
x0,7_86 0
x0,8_4 0
x0,8_9 0
x0,8_11 0
x0,8_15 0
x0,8_22 0
x0,8_26 0
x0,8_35 0
x0,8_48 0
x0,8_57 0
x0,8_58 0
x0,8_73 0
x0,8_77 0
x0,8_82 0
x0,8_86 0
x0,9_4 0
x0,9_9 0
x0,9_11 0
x0,9_15 0
x0,9_22 0
x0,9_26 0
x0,9_35 0
x0,9_48 0
x0,9_57 0
x0,9_58 0
x0,9_73 0
x0,9_77 0
x0,9_82 0
x0,9_86 0
x0,10_4 0
x0,10_9 0
x0,10_11 0
x0,10_15 0
x0,10_22 0
x0,10_26 0
x0,10_35 0
x0,10_48 0
x0,10_57 0
x0,10_58 0
x0,10_73 0
x0,10_77 0
x0,10_82 0
x0,10_86 0
x0,11_4 0
x0,11_9 0
x0,11_11 0
x0,11_15 0
x0,11_22 0
x0,11_26 0
x0,11_35 0
x0,11_48 0
x0,11_57 0
x0,11_58 0
x0,11_73 0
x0,11_77 0
x0,11_82 0
x0,11_86 0
x0,12_4 0
x0,12_9 0
x0,12_11 0
x0,12_15 0
x0,12_22 0
x0,12_26 0
x0,12_35 0
x0,12_48 0
x0,12_57 0
x0,12_58 0
x0,12_73 0
x0,12_77 0
x0,12_82 0
x0,12_86 0
x0,13_4 0
x0,13_9 0
x0,13_11 0
x0,13_15 0
x0,13_22 0
x0,13_26 0
x0,13_35 0
x0,13_48 0
x0,13_57 0
x0,13_58 0
x0,13_73 0
x0,13_77 0
x0,13_82 0
x0,13_86 0
x0,14_4 0
x0,14_9 0
x0,14_11 0
x0,14_15 0
x0,14_22 0
x0,14_26 0
x0,14_35 0
x0,14_48 0
x0,14_57 0
x0,14_58 0
x0,14_73 0
x0,14_77 0
x0,14_82 0
x0,14_86 0
x1,2_4 0
x1,2_9 0
x1,2_11 0
x1,2_15 1
x1,2_22 0
x1,2_26 0
x1,2_35 0
x1,2_48 0
x1,2_57 0
x1,2_58 0
x1,2_73 0
x1,2_77 0
x1,2_82 0
x1,2_86 0
x1,3_4 0
x1,3_9 0
x1,3_11 0
x1,3_15 0
x1,3_22 0
x1,3_26 1
x1,3_35 0
x1,3_48 0
x1,3_57 0
x1,3_58 0
x1,3_73 0
x1,3_77 0
x1,3_82 0
x1,3_86 0
x1,4_4 0
x1,4_9 0
x1,4_11 0
x1,4_15 0
x1,4_22 0
x1,4_26 0
x1,4_35 0
x1,4_48 1
x1,4_57 0
x1,4_58 0
x1,4_73 0
x1,4_77 0
x1,4_82 0
x1,4_86 0
x1,5_4 0
x1,5_9 0
x1,5_11 0
x1,5_15 0
x1,5_22 0
x1,5_26 0
x1,5_35 0
x1,5_48 0
x1,5_57 0
x1,5_58 0
x1,5_73 1
x1,5_77 0
x1,5_82 0
x1,5_86 0
x1,6_4 0
x1,6_9 0
x1,6_11 0
x1,6_15 0
x1,6_22 0
x1,6_26 0
x1,6_35 0
x1,6_48 0
x1,6_57 0
x1,6_58 0
x1,6_73 0
x1,6_77 1
x1,6_82 0
x1,6_86 0
x1,7_4 0
x1,7_9 0
x1,7_11 0
x1,7_15 0
x1,7_22 0
x1,7_26 0
x1,7_35 0
x1,7_48 0
x1,7_57 0
x1,7_58 0
x1,7_73 0
x1,7_77 0
x1,7_82 0
x1,7_86 0
x1,8_4 0
x1,8_9 0
x1,8_11 0
x1,8_15 0
x1,8_22 0
x1,8_26 0
x1,8_35 0
x1,8_48 0
x1,8_57 0
x1,8_58 0
x1,8_73 0
x1,8_77 0
x1,8_82 0
x1,8_86 0
x1,9_4 0
x1,9_9 0
x1,9_11 0
x1,9_15 0
x1,9_22 0
x1,9_26 0
x1,9_35 0
x1,9_48 0
x1,9_57 0
x1,9_58 0
x1,9_73 0
x1,9_77 0
x1,9_82 0
x1,9_86 0
x1,10_4 0
x1,10_9 0
x1,10_11 0
x1,10_15 0
x1,10_22 0
x1,10_26 0
x1,10_35 0
x1,10_48 0
x1,10_57 0
x1,10_58 0
x1,10_73 0
x1,10_77 0
x1,10_82 0
x1,10_86 0
x1,11_4 0
x1,11_9 0
x1,11_11 0
x1,11_15 0
x1,11_22 0
x1,11_26 0
x1,11_35 0
x1,11_48 0
x1,11_57 0
x1,11_58 0
x1,11_73 0
x1,11_77 0
x1,11_82 0
x1,11_86 0
x1,12_4 0
x1,12_9 0
x1,12_11 0
x1,12_15 0
x1,12_22 0
x1,12_26 0
x1,12_35 0
x1,12_48 0
x1,12_57 0
x1,12_58 0
x1,12_73 0
x1,12_77 0
x1,12_82 0
x1,12_86 0
x1,13_4 0
x1,13_9 0
x1,13_11 0
x1,13_15 0
x1,13_22 0
x1,13_26 0
x1,13_35 0
x1,13_48 0
x1,13_57 0
x1,13_58 0
x1,13_73 0
x1,13_77 0
x1,13_82 0
x1,13_86 0
x1,14_4 0
x1,14_9 0
x1,14_11 0
x1,14_15 0
x1,14_22 0
x1,14_26 0
x1,14_35 0
x1,14_48 0
x1,14_57 0
x1,14_58 0
x1,14_73 0
x1,14_77 0
x1,14_82 0
x1,14_86 0
x2,3_4 0
x2,3_9 0
x2,3_11 1
x2,3_15 0
x2,3_22 0
x2,3_26 0
x2,3_35 0
x2,3_48 0
x2,3_57 0
x2,3_58 0
x2,3_73 0
x2,3_77 0
x2,3_82 0
x2,3_86 0
x2,4_4 0
x2,4_9 0
x2,4_11 0
x2,4_15 0
x2,4_22 0
x2,4_26 0
x2,4_35 0
x2,4_48 0
x2,4_57 0
x2,4_58 0
x2,4_73 0
x2,4_77 0
x2,4_82 0
x2,4_86 0
x2,5_4 0
x2,5_9 0
x2,5_11 0
x2,5_15 0
x2,5_22 0
x2,5_26 0
x2,5_35 0
x2,5_48 0
x2,5_57 0
x2,5_58 1
x2,5_73 0
x2,5_77 0
x2,5_82 0
x2,5_86 0
x2,6_4 0
x2,6_9 0
x2,6_11 0
x2,6_15 0
x2,6_22 0
x2,6_26 0
x2,6_35 0
x2,6_48 0
x2,6_57 0
x2,6_58 0
x2,6_73 0
x2,6_77 0
x2,6_82 0
x2,6_86 0
x2,7_4 0
x2,7_9 0
x2,7_11 0
x2,7_15 0
x2,7_22 0
x2,7_26 0
x2,7_35 0
x2,7_48 0
x2,7_57 0
x2,7_58 0
x2,7_73 0
x2,7_77 0
x2,7_82 0
x2,7_86 0
x2,8_4 0
x2,8_9 0
x2,8_11 0
x2,8_15 0
x2,8_22 0
x2,8_26 0
x2,8_35 0
x2,8_48 0
x2,8_57 0
x2,8_58 0
x2,8_73 0
x2,8_77 0
x2,8_82 0
x2,8_86 0
x2,9_4 0
x2,9_9 0
x2,9_11 0
x2,9_15 0
x2,9_22 0
x2,9_26 0
x2,9_35 0
x2,9_48 0
x2,9_57 0
x2,9_58 0
x2,9_73 0
x2,9_77 0
x2,9_82 0
x2,9_86 0
x2,10_4 0
x2,10_9 0
x2,10_11 0
x2,10_15 0
x2,10_22 0
x2,10_26 0
x2,10_35 0
x2,10_48 0
x2,10_57 0
x2,10_58 0
x2,10_73 0
x2,10_77 0
x2,10_82 0
x2,10_86 0
x2,11_4 0
x2,11_9 0
x2,11_11 0
x2,11_15 0
x2,11_22 0
x2,11_26 0
x2,11_35 0
x2,11_48 0
x2,11_57 0
x2,11_58 0
x2,11_73 0
x2,11_77 0
x2,11_82 0
x2,11_86 0
x2,12_4 0
x2,12_9 0
x2,12_11 0
x2,12_15 0
x2,12_22 0
x2,12_26 0
x2,12_35 0
x2,12_48 0
x2,12_57 0
x2,12_58 0
x2,12_73 0
x2,12_77 0
x2,12_82 0
x2,12_86 0
x2,13_4 0
x2,13_9 0
x2,13_11 0
x2,13_15 0
x2,13_22 0
x2,13_26 0
x2,13_35 0
x2,13_48 0
x2,13_57 0
x2,13_58 0
x2,13_73 0
x2,13_77 0
x2,13_82 0
x2,13_86 0
x2,14_4 0
x2,14_9 0
x2,14_11 0
x2,14_15 0
x2,14_22 0
x2,14_26 0
x2,14_35 0
x2,14_48 0
x2,14_57 0
x2,14_58 0
x2,14_73 0
x2,14_77 0
x2,14_82 0
x2,14_86 0
x3,4_4 0
x3,4_9 0
x3,4_11 0
x3,4_15 0
x3,4_22 1
x3,4_26 0
x3,4_35 0
x3,4_48 0
x3,4_57 0
x3,4_58 0
x3,4_73 0
x3,4_77 0
x3,4_82 0
x3,4_86 0
x3,5_4 0
x3,5_9 0
x3,5_11 0
x3,5_15 0
x3,5_22 0
x3,5_26 0
x3,5_35 0
x3,5_48 0
x3,5_57 0
x3,5_58 0
x3,5_73 0
x3,5_77 0
x3,5_82 0
x3,5_86 0
x3,6_4 0
x3,6_9 0
x3,6_11 0
x3,6_15 0
x3,6_22 0
x3,6_26 0
x3,6_35 0
x3,6_48 0
x3,6_57 0
x3,6_58 0
x3,6_73 0
x3,6_77 0
x3,6_82 0
x3,6_86 0
x3,7_4 0
x3,7_9 0
x3,7_11 0
x3,7_15 0
x3,7_22 0
x3,7_26 0
x3,7_35 0
x3,7_48 0
x3,7_57 0
x3,7_58 0
x3,7_73 0
x3,7_77 0
x3,7_82 0
x3,7_86 0
x3,8_4 0
x3,8_9 0
x3,8_11 0
x3,8_15 0
x3,8_22 0
x3,8_26 0
x3,8_35 0
x3,8_48 0
x3,8_57 0
x3,8_58 0
x3,8_73 0
x3,8_77 0
x3,8_82 0
x3,8_86 0
x3,9_4 0
x3,9_9 0
x3,9_11 0
x3,9_15 0
x3,9_22 0
x3,9_26 0
x3,9_35 0
x3,9_48 0
x3,9_57 0
x3,9_58 0
x3,9_73 0
x3,9_77 0
x3,9_82 0
x3,9_86 0
x3,10_4 0
x3,10_9 0
x3,10_11 0
x3,10_15 0
x3,10_22 0
x3,10_26 0
x3,10_35 0
x3,10_48 0
x3,10_57 0
x3,10_58 0
x3,10_73 0
x3,10_77 0
x3,10_82 0
x3,10_86 0
x3,11_4 0
x3,11_9 0
x3,11_11 0
x3,11_15 0
x3,11_22 0
x3,11_26 0
x3,11_35 0
x3,11_48 0
x3,11_57 0
x3,11_58 0
x3,11_73 0
x3,11_77 0
x3,11_82 0
x3,11_86 0
x3,12_4 0
x3,12_9 0
x3,12_11 0
x3,12_15 0
x3,12_22 0
x3,12_26 0
x3,12_35 0
x3,12_48 0
x3,12_57 0
x3,12_58 0
x3,12_73 0
x3,12_77 0
x3,12_82 0
x3,12_86 0
x3,13_4 0
x3,13_9 0
x3,13_11 0
x3,13_15 0
x3,13_22 0
x3,13_26 0
x3,13_35 0
x3,13_48 0
x3,13_57 0
x3,13_58 0
x3,13_73 0
x3,13_77 0
x3,13_82 0
x3,13_86 0
x3,14_4 0
x3,14_9 0
x3,14_11 0
x3,14_15 0
x3,14_22 0
x3,14_26 0
x3,14_35 0
x3,14_48 0
x3,14_57 0
x3,14_58 0
x3,14_73 0
x3,14_77 0
x3,14_82 0
x3,14_86 0
x4,5_4 0
x4,5_9 0
x4,5_11 0
x4,5_15 0
x4,5_22 0
x4,5_26 0
x4,5_35 0
x4,5_48 0
x4,5_57 0
x4,5_58 0
x4,5_73 0
x4,5_77 0
x4,5_82 0
x4,5_86 0
x4,6_4 0
x4,6_9 0
x4,6_11 0
x4,6_15 0
x4,6_22 0
x4,6_26 0
x4,6_35 0
x4,6_48 0
x4,6_57 0
x4,6_58 0
x4,6_73 0
x4,6_77 0
x4,6_82 0
x4,6_86 0
x4,7_4 0
x4,7_9 0
x4,7_11 0
x4,7_15 0
x4,7_22 0
x4,7_26 0
x4,7_35 0
x4,7_48 0
x4,7_57 0
x4,7_58 0
x4,7_73 0
x4,7_77 0
x4,7_82 0
x4,7_86 0
x4,8_4 0
x4,8_9 0
x4,8_11 0
x4,8_15 0
x4,8_22 0
x4,8_26 0
x4,8_35 0
x4,8_48 0
x4,8_57 0
x4,8_58 0
x4,8_73 0
x4,8_77 0
x4,8_82 0
x4,8_86 0
x4,9_4 0
x4,9_9 0
x4,9_11 0
x4,9_15 0
x4,9_22 0
x4,9_26 0
x4,9_35 0
x4,9_48 0
x4,9_57 0
x4,9_58 0
x4,9_73 0
x4,9_77 0
x4,9_82 0
x4,9_86 0
x4,10_4 0
x4,10_9 0
x4,10_11 0
x4,10_15 0
x4,10_22 0
x4,10_26 0
x4,10_35 0
x4,10_48 0
x4,10_57 0
x4,10_58 0
x4,10_73 0
x4,10_77 0
x4,10_82 0
x4,10_86 0
x4,11_4 0
x4,11_9 0
x4,11_11 0
x4,11_15 0
x4,11_22 0
x4,11_26 0
x4,11_35 0
x4,11_48 0
x4,11_57 0
x4,11_58 0
x4,11_73 0
x4,11_77 0
x4,11_82 0
x4,11_86 0
x4,12_4 0
x4,12_9 0
x4,12_11 0
x4,12_15 0
x4,12_22 0
x4,12_26 0
x4,12_35 0
x4,12_48 0
x4,12_57 0
x4,12_58 0
x4,12_73 0
x4,12_77 0
x4,12_82 0
x4,12_86 0
x4,13_4 0
x4,13_9 0
x4,13_11 0
x4,13_15 0
x4,13_22 0
x4,13_26 0
x4,13_35 0
x4,13_48 0
x4,13_57 0
x4,13_58 0
x4,13_73 0
x4,13_77 0
x4,13_82 0
x4,13_86 0
x4,14_4 0
x4,14_9 0
x4,14_11 0
x4,14_15 0
x4,14_22 0
x4,14_26 0
x4,14_35 0
x4,14_48 0
x4,14_57 0
x4,14_58 0
x4,14_73 0
x4,14_77 0
x4,14_82 0
x4,14_86 0
x5,6_4 1
x5,6_9 0
x5,6_11 0
x5,6_15 0
x5,6_22 0
x5,6_26 0
x5,6_35 0
x5,6_48 0
x5,6_57 0
x5,6_58 0
x5,6_73 0
x5,6_77 0
x5,6_82 0
x5,6_86 0
x5,7_4 0
x5,7_9 0
x5,7_11 0
x5,7_15 0
x5,7_22 0
x5,7_26 0
x5,7_35 0
x5,7_48 0
x5,7_57 0
x5,7_58 0
x5,7_73 0
x5,7_77 0
x5,7_82 0
x5,7_86 0
x5,8_4 0
x5,8_9 0
x5,8_11 0
x5,8_15 0
x5,8_22 0
x5,8_26 0
x5,8_35 0
x5,8_48 0
x5,8_57 0
x5,8_58 0
x5,8_73 0
x5,8_77 0
x5,8_82 0
x5,8_86 0
x5,9_4 0
x5,9_9 0
x5,9_11 0
x5,9_15 0
x5,9_22 0
x5,9_26 0
x5,9_35 0
x5,9_48 0
x5,9_57 0
x5,9_58 0
x5,9_73 0
x5,9_77 0
x5,9_82 0
x5,9_86 0
x5,10_4 0
x5,10_9 0
x5,10_11 0
x5,10_15 0
x5,10_22 0
x5,10_26 0
x5,10_35 0
x5,10_48 0
x5,10_57 0
x5,10_58 0
x5,10_73 0
x5,10_77 0
x5,10_82 0
x5,10_86 0
x5,11_4 0
x5,11_9 0
x5,11_11 0
x5,11_15 0
x5,11_22 0
x5,11_26 0
x5,11_35 0
x5,11_48 0
x5,11_57 0
x5,11_58 0
x5,11_73 0
x5,11_77 0
x5,11_82 0
x5,11_86 0
x5,12_4 0
x5,12_9 0
x5,12_11 0
x5,12_15 0
x5,12_22 0
x5,12_26 0
x5,12_35 0
x5,12_48 0
x5,12_57 0
x5,12_58 0
x5,12_73 0
x5,12_77 0
x5,12_82 0
x5,12_86 0
x5,13_4 0
x5,13_9 0
x5,13_11 0
x5,13_15 0
x5,13_22 0
x5,13_26 0
x5,13_35 0
x5,13_48 0
x5,13_57 0
x5,13_58 0
x5,13_73 0
x5,13_77 0
x5,13_82 0
x5,13_86 0
x5,14_4 0
x5,14_9 0
x5,14_11 0
x5,14_15 0
x5,14_22 0
x5,14_26 0
x5,14_35 0
x5,14_48 0
x5,14_57 0
x5,14_58 0
x5,14_73 0
x5,14_77 0
x5,14_82 0
x5,14_86 0
x6,7_4 0
x6,7_9 0
x6,7_11 0
x6,7_15 0
x6,7_22 0
x6,7_26 0
x6,7_35 0
x6,7_48 0
x6,7_57 0
x6,7_58 0
x6,7_73 0
x6,7_77 0
x6,7_82 0
x6,7_86 0
x6,8_4 0
x6,8_9 0
x6,8_11 0
x6,8_15 0
x6,8_22 0
x6,8_26 0
x6,8_35 0
x6,8_48 0
x6,8_57 0
x6,8_58 0
x6,8_73 0
x6,8_77 0
x6,8_82 0
x6,8_86 0
x6,9_4 0
x6,9_9 0
x6,9_11 0
x6,9_15 0
x6,9_22 0
x6,9_26 0
x6,9_35 0
x6,9_48 0
x6,9_57 0
x6,9_58 0
x6,9_73 0
x6,9_77 0
x6,9_82 0
x6,9_86 0
x6,10_4 0
x6,10_9 0
x6,10_11 0
x6,10_15 0
x6,10_22 0
x6,10_26 0
x6,10_35 0
x6,10_48 0
x6,10_57 0
x6,10_58 0
x6,10_73 0
x6,10_77 0
x6,10_82 0
x6,10_86 0
x6,11_4 0
x6,11_9 0
x6,11_11 0
x6,11_15 0
x6,11_22 0
x6,11_26 0
x6,11_35 0
x6,11_48 0
x6,11_57 0
x6,11_58 0
x6,11_73 0
x6,11_77 0
x6,11_82 0
x6,11_86 0
x6,12_4 0
x6,12_9 0
x6,12_11 0
x6,12_15 0
x6,12_22 0
x6,12_26 0
x6,12_35 0
x6,12_48 0
x6,12_57 0
x6,12_58 0
x6,12_73 0
x6,12_77 0
x6,12_82 0
x6,12_86 0
x6,13_4 0
x6,13_9 0
x6,13_11 0
x6,13_15 0
x6,13_22 0
x6,13_26 0
x6,13_35 0
x6,13_48 0
x6,13_57 0
x6,13_58 0
x6,13_73 0
x6,13_77 0
x6,13_82 0
x6,13_86 0
x6,14_4 0
x6,14_9 0
x6,14_11 0
x6,14_15 0
x6,14_22 0
x6,14_26 0
x6,14_35 0
x6,14_48 0
x6,14_57 0
x6,14_58 0
x6,14_73 0
x6,14_77 0
x6,14_82 0
x6,14_86 0
x7,8_4 0
x7,8_9 0
x7,8_11 0
x7,8_15 0
x7,8_22 0
x7,8_26 0
x7,8_35 0
x7,8_48 0
x7,8_57 0
x7,8_58 0
x7,8_73 0
x7,8_77 0
x7,8_82 0
x7,8_86 0
x7,9_4 0
x7,9_9 0
x7,9_11 0
x7,9_15 0
x7,9_22 0
x7,9_26 0
x7,9_35 0
x7,9_48 0
x7,9_57 0
x7,9_58 0
x7,9_73 0
x7,9_77 0
x7,9_82 0
x7,9_86 0
x7,10_4 0
x7,10_9 0
x7,10_11 0
x7,10_15 0
x7,10_22 0
x7,10_26 0
x7,10_35 0
x7,10_48 0
x7,10_57 0
x7,10_58 0
x7,10_73 0
x7,10_77 0
x7,10_82 0
x7,10_86 0
x7,11_4 0
x7,11_9 0
x7,11_11 0
x7,11_15 0
x7,11_22 0
x7,11_26 0
x7,11_35 0
x7,11_48 0
x7,11_57 0
x7,11_58 0
x7,11_73 0
x7,11_77 0
x7,11_82 0
x7,11_86 0
x7,12_4 0
x7,12_9 0
x7,12_11 0
x7,12_15 0
x7,12_22 0
x7,12_26 0
x7,12_35 0
x7,12_48 0
x7,12_57 0
x7,12_58 0
x7,12_73 0
x7,12_77 0
x7,12_82 0
x7,12_86 0
x7,13_4 0
x7,13_9 0
x7,13_11 0
x7,13_15 0
x7,13_22 0
x7,13_26 0
x7,13_35 0
x7,13_48 0
x7,13_57 0
x7,13_58 0
x7,13_73 0
x7,13_77 0
x7,13_82 0
x7,13_86 0
x7,14_4 0
x7,14_9 0
x7,14_11 0
x7,14_15 0
x7,14_22 0
x7,14_26 0
x7,14_35 0
x7,14_48 0
x7,14_57 0
x7,14_58 0
x7,14_73 0
x7,14_77 0
x7,14_82 0
x7,14_86 0
x8,9_4 0
x8,9_9 0
x8,9_11 0
x8,9_15 0
x8,9_22 0
x8,9_26 0
x8,9_35 0
x8,9_48 0
x8,9_57 0
x8,9_58 0
x8,9_73 0
x8,9_77 0
x8,9_82 0
x8,9_86 0
x8,10_4 0
x8,10_9 0
x8,10_11 0
x8,10_15 0
x8,10_22 0
x8,10_26 0
x8,10_35 0
x8,10_48 0
x8,10_57 0
x8,10_58 0
x8,10_73 0
x8,10_77 0
x8,10_82 0
x8,10_86 0
x8,11_4 0
x8,11_9 0
x8,11_11 0
x8,11_15 0
x8,11_22 0
x8,11_26 0
x8,11_35 0
x8,11_48 0
x8,11_57 0
x8,11_58 0
x8,11_73 0
x8,11_77 0
x8,11_82 0
x8,11_86 0
x8,12_4 0
x8,12_9 0
x8,12_11 0
x8,12_15 0
x8,12_22 0
x8,12_26 0
x8,12_35 0
x8,12_48 0
x8,12_57 0
x8,12_58 0
x8,12_73 0
x8,12_77 0
x8,12_82 0
x8,12_86 0
x8,13_4 0
x8,13_9 0
x8,13_11 0
x8,13_15 0
x8,13_22 0
x8,13_26 0
x8,13_35 0
x8,13_48 0
x8,13_57 0
x8,13_58 0
x8,13_73 0
x8,13_77 0
x8,13_82 0
x8,13_86 0
x8,14_4 0
x8,14_9 0
x8,14_11 0
x8,14_15 0
x8,14_22 0
x8,14_26 0
x8,14_35 0
x8,14_48 0
x8,14_57 0
x8,14_58 0
x8,14_73 0
x8,14_77 0
x8,14_82 0
x8,14_86 0
x9,10_4 0
x9,10_9 0
x9,10_11 0
x9,10_15 0
x9,10_22 0
x9,10_26 0
x9,10_35 0
x9,10_48 0
x9,10_57 0
x9,10_58 0
x9,10_73 0
x9,10_77 0
x9,10_82 0
x9,10_86 0
x9,11_4 0
x9,11_9 0
x9,11_11 0
x9,11_15 0
x9,11_22 0
x9,11_26 0
x9,11_35 0
x9,11_48 0
x9,11_57 0
x9,11_58 0
x9,11_73 0
x9,11_77 0
x9,11_82 0
x9,11_86 0
x9,12_4 0
x9,12_9 0
x9,12_11 0
x9,12_15 0
x9,12_22 0
x9,12_26 0
x9,12_35 0
x9,12_48 0
x9,12_57 0
x9,12_58 0
x9,12_73 0
x9,12_77 0
x9,12_82 0
x9,12_86 0
x9,13_4 0
x9,13_9 0
x9,13_11 0
x9,13_15 0
x9,13_22 0
x9,13_26 0
x9,13_35 0
x9,13_48 0
x9,13_57 0
x9,13_58 0
x9,13_73 0
x9,13_77 0
x9,13_82 0
x9,13_86 0
x9,14_4 0
x9,14_9 0
x9,14_11 0
x9,14_15 0
x9,14_22 0
x9,14_26 0
x9,14_35 0
x9,14_48 0
x9,14_57 0
x9,14_58 0
x9,14_73 0
x9,14_77 0
x9,14_82 0
x9,14_86 0
x10,11_4 0
x10,11_9 0
x10,11_11 0
x10,11_15 0
x10,11_22 0
x10,11_26 0
x10,11_35 0
x10,11_48 0
x10,11_57 0
x10,11_58 0
x10,11_73 0
x10,11_77 0
x10,11_82 0
x10,11_86 0
x10,12_4 0
x10,12_9 0
x10,12_11 0
x10,12_15 0
x10,12_22 0
x10,12_26 0
x10,12_35 0
x10,12_48 0
x10,12_57 0
x10,12_58 0
x10,12_73 0
x10,12_77 0
x10,12_82 0
x10,12_86 0
x10,13_4 0
x10,13_9 0
x10,13_11 0
x10,13_15 0
x10,13_22 0
x10,13_26 0
x10,13_35 0
x10,13_48 0
x10,13_57 0
x10,13_58 0
x10,13_73 0
x10,13_77 0
x10,13_82 0
x10,13_86 0
x10,14_4 0
x10,14_9 0
x10,14_11 0
x10,14_15 0
x10,14_22 0
x10,14_26 0
x10,14_35 0
x10,14_48 0
x10,14_57 0
x10,14_58 0
x10,14_73 0
x10,14_77 0
x10,14_82 0
x10,14_86 0
x11,12_4 0
x11,12_9 0
x11,12_11 0
x11,12_15 0
x11,12_22 0
x11,12_26 0
x11,12_35 0
x11,12_48 0
x11,12_57 0
x11,12_58 0
x11,12_73 0
x11,12_77 0
x11,12_82 0
x11,12_86 0
x11,13_4 0
x11,13_9 0
x11,13_11 0
x11,13_15 0
x11,13_22 0
x11,13_26 0
x11,13_35 0
x11,13_48 0
x11,13_57 0
x11,13_58 0
x11,13_73 0
x11,13_77 0
x11,13_82 0
x11,13_86 0
x11,14_4 0
x11,14_9 0
x11,14_11 0
x11,14_15 0
x11,14_22 0
x11,14_26 0
x11,14_35 0
x11,14_48 0
x11,14_57 0
x11,14_58 0
x11,14_73 0
x11,14_77 0
x11,14_82 0
x11,14_86 0
x12,13_4 0
x12,13_9 0
x12,13_11 0
x12,13_15 0
x12,13_22 0
x12,13_26 0
x12,13_35 0
x12,13_48 0
x12,13_57 0
x12,13_58 0
x12,13_73 0
x12,13_77 0
x12,13_82 0
x12,13_86 0
x12,14_4 0
x12,14_9 0
x12,14_11 0
x12,14_15 0
x12,14_22 0
x12,14_26 0
x12,14_35 0
x12,14_48 0
x12,14_57 0
x12,14_58 0
x12,14_73 0
x12,14_77 0
x12,14_82 0
x12,14_86 0
x13,14_4 0
x13,14_9 0
x13,14_11 0
x13,14_15 0
x13,14_22 0
x13,14_26 0
x13,14_35 0
x13,14_48 0
x13,14_57 0
x13,14_58 0
x13,14_73 0
x13,14_77 0
x13,14_82 0
x13,14_86 0
z0 1
z1 1
z2 1
z3 1
z4 1
z5 1
z6 1
z7 0
z8 0
z9 0
z10 0
z11 0
z12 0
z13 0
z14 0
p0 0
p1 9
p2 24
p3 35
p4 57
p5 82
p6 86
p7 91
p8 92
p9 93
p10 94
p11 95
p12 96
p13 97
p14 98
